c FILE: hole6.cnf
c SOURCE: file mkhole.ml of Sylvain.Boulme@imag.fr
c DESCRIPTION: placing each of 7 pigeons in 6 distinct holes (one pigeon by hole)
c NOTE: Not Satisfiable
p cnf 42 133
42 41 40 39 38 37 0
36 35 34 33 32 31 0
30 29 28 27 26 25 0
24 23 22 21 20 19 0
18 17 16 15 14 13 0
12 11 10 9 8 7 0
6 5 4 3 2 1 0
-42 -36 0
-42 -30 0
-42 -24 0
-42 -18 0
-42 -12 0
-42 -6 0
-36 -30 0
-36 -24 0
-36 -18 0
-36 -12 0
-36 -6 0
-30 -24 0
-30 -18 0
-30 -12 0
-30 -6 0
-24 -18 0
-24 -12 0
-24 -6 0
-18 -12 0
-18 -6 0
-12 -6 0
-41 -35 0
-41 -29 0
-41 -23 0
-41 -17 0
-41 -11 0
-41 -5 0
-35 -29 0
-35 -23 0
-35 -17 0
-35 -11 0
-35 -5 0
-29 -23 0
-29 -17 0
-29 -11 0
-29 -5 0
-23 -17 0
-23 -11 0
-23 -5 0
-17 -11 0
-17 -5 0
-11 -5 0
-40 -34 0
-40 -28 0
-40 -22 0
-40 -16 0
-40 -10 0
-40 -4 0
-34 -28 0
-34 -22 0
-34 -16 0
-34 -10 0
-34 -4 0
-28 -22 0
-28 -16 0
-28 -10 0
-28 -4 0
-22 -16 0
-22 -10 0
-22 -4 0
-16 -10 0
-16 -4 0
-10 -4 0
-39 -33 0
-39 -27 0
-39 -21 0
-39 -15 0
-39 -9 0
-39 -3 0
-33 -27 0
-33 -21 0
-33 -15 0
-33 -9 0
-33 -3 0
-27 -21 0
-27 -15 0
-27 -9 0
-27 -3 0
-21 -15 0
-21 -9 0
-21 -3 0
-15 -9 0
-15 -3 0
-9 -3 0
-38 -32 0
-38 -26 0
-38 -20 0
-38 -14 0
-38 -8 0
-38 -2 0
-32 -26 0
-32 -20 0
-32 -14 0
-32 -8 0
-32 -2 0
-26 -20 0
-26 -14 0
-26 -8 0
-26 -2 0
-20 -14 0
-20 -8 0
-20 -2 0
-14 -8 0
-14 -2 0
-8 -2 0
-37 -31 0
-37 -25 0
-37 -19 0
-37 -13 0
-37 -7 0
-37 -1 0
-31 -25 0
-31 -19 0
-31 -13 0
-31 -7 0
-31 -1 0
-25 -19 0
-25 -13 0
-25 -7 0
-25 -1 0
-19 -13 0
-19 -7 0
-19 -1 0
-13 -7 0
-13 -1 0
-7 -1 0
